200
1000
495
493
492
487
487
485
482
480
480
479
475
475
473
473
469
469
465
464
460
459
457
456
455
454
453
451
450
449
445
443
441
439
438
435
433
431
427
423
423
421
421
420
420
417
415
414
414
411
411
408
406
404
401
399
395
395
394
392
391
390
390
386
384
384
380
378
377
377
374
373
370
369
369
369
368
367
366
363
360
359
354
353
350
349
348
347
346
346
344
342
341
337
336
334
332
332
332
329
328
327
323
321
321
317
317
316
315
313
310
310
306
305
305
303
303
301
301
300
297
296
293
292
291
291
290
289
286
286
286
284
283
282
282
282
282
282
282
280
279
276
275
272
272
270
270
270
260
256
256
255
254
253
245
244
240
236
235
234
234
234
233
230
228
227
226
226
225
222
222
221
217
217
214
211
208
207
207
206
204
203
203
202
202
202
200
199
198
197
192
189
187
186
183
178
177
177
174
170
170
168
